NAME : A-n7-k3
COMMENT : (Augerat et al, No of trucks: 3, Optimal value: 475)
TYPE : CVRP
DIMENSION : 7
EDGE_WEIGHT_TYPE : EUC_2D
CAPACITY : 35
NODE_COORD_SECTION
0 82 76
1 96 44
2 50 5
3 49 8
4 13 7
5 29 89
6 58 30
DEMAND_SECTION
0 0
1 19
2 21
3 6
4 19
5 7
6 12
DEPOT_SECTION
0
-1
EOF
